22
 1 44 2
 2 315 15
 3 160 8
 4 209 11
 5 90 5
 6 238 14
 7 96 6
 8 195 13
 9 182 13
 10 169 13
 11 216 18
 12 165 15
 13 120 12
 14 135 15
 15 128 16
 16 63 9
 17 36 6
 18 10 2
 19 64 16
 20 27 9
 21 30 15
 22 7 7
264